tsp_instances/TSP20/instance126.tsp
NODE_COORD_SECTION
0 20 43
1 180 37
2 122 16
3 64 25
4 111 129
5 40 160
6 187 138
7 118 106
8 166 72
9 47 0
10 19 117
11 56 73
12 169 179
13 145 6
14 182 95
15 24 15
16 114 87
17 64 177
18 8 154
19 193 101
