tsp_instances/TSP20/instance126.opt.tour
TOUR_SECTION
1
12
11
19
6
18
5
8
17
13
7
20
15
9
2
14
3
4
10
16
-1